
  22    4
  10   10   10   10

   0   0   0   0   0   4 2 4 5 7 
   9  10  10  10  10   1 3 
   3  10  10  10  10   3 12 8 6 
   1  10  10  10  10   3 12 8 6 
   2  10  10  10  10   3 13 12 8 
   2  10  10  10  10   3 13 11 10 
   7  10  10  10  10   3 13 12 10 
   9  10  10  10  10   1 9 
   8  10  10  10  10   2 11 10 
   7  10  10  10  10   3 19 15 14 
   1  10  10  10  10   3 21 19 14 
   7  10  10  10  10   5 21 20 19 18 17 
   7  10  10  10  10   2 19 16 
   3  10  10  10  10   3 20 18 17 
   8  10  10  10  10   1 16 
  10  10  10  10  10   2 18 17 
   8  10  10  10  10   1 22
   4  10  10  10  10   1 22
   7  10  10  10  10   1 22
   2  10  10  10  10   1 22
   6  10  10  10  10   1 22
   0   0   0   0   0   0 
